p edge 26 167
e 1 2
e 1 6
e 1 9
e 1 10
e 1 11
e 1 14
e 1 15
e 1 16
e 1 19
e 1 24
e 1 25
e 1 26
e 2 3
e 2 6
e 2 7
e 2 10
e 2 12
e 2 13
e 2 17
e 2 20
e 2 24
e 2 25
e 2 26
e 3 5
e 3 6
e 3 8
e 3 10
e 3 11
e 3 13
e 3 16
e 3 18
e 3 19
e 3 21
e 3 22
e 3 23
e 3 25
e 3 26
e 4 7
e 4 9
e 4 11
e 4 13
e 4 14
e 4 15
e 4 16
e 4 18
e 4 19
e 4 23
e 4 24
e 5 6
e 5 7
e 5 9
e 5 11
e 5 14
e 5 16
e 5 17
e 5 24
e 5 25
e 6 9
e 6 12
e 6 13
e 6 14
e 6 15
e 6 16
e 6 20
e 6 21
e 6 24
e 6 26
e 7 9
e 7 12
e 7 14
e 7 15
e 7 16
e 7 17
e 7 20
e 7 23
e 7 24
e 7 25
e 8 11
e 8 12
e 8 14
e 8 17
e 8 18
e 8 19
e 8 20
e 8 24
e 8 25
e 8 26
e 9 10
e 9 11
e 9 13
e 9 14
e 9 17
e 9 18
e 9 22
e 9 24
e 9 25
e 9 26
e 10 11
e 10 13
e 10 14
e 10 16
e 10 17
e 10 19
e 10 22
e 11 12
e 11 15
e 11 16
e 11 17
e 11 18
e 11 19
e 11 20
e 11 23
e 11 26
e 12 13
e 12 16
e 12 21
e 12 22
e 12 23
e 12 24
e 13 14
e 13 15
e 13 16
e 13 17
e 13 18
e 13 21
e 13 23
e 13 25
e 13 26
e 14 15
e 14 17
e 14 18
e 14 20
e 14 21
e 14 23
e 14 26
e 15 16
e 15 18
e 15 19
e 15 20
e 15 23
e 15 24
e 16 17
e 16 19
e 16 20
e 16 21
e 16 22
e 16 25
e 17 18
e 17 20
e 17 24
e 17 25
e 17 26
e 18 21
e 18 24
e 18 25
e 19 20
e 19 21
e 19 22
e 19 25
e 20 22
e 20 26
e 21 22
e 21 23
e 21 25
e 21 26
e 22 26
e 23 26
